302907
302907
302784
302784
302784
300664
300664
296500
296500
296500
292042
291314
291314
288527
288527
288527
288527
285037
285037
285037
284805
284805
284805
284805
284805
284805
284681
280996
280996
280996
280996
280996
276421
276421
276421
276421
276421
276421
276421
276421
276421
276421
276421
276421
276157
276157
276157
274310
274310
274279
274279
274279
274279
274279
274279
274279
274279
274279
274279
274279
274279
274279
274279
274115
274115
274115
274115
274115
274115
274115
274115
274115
274115
274115
274115
274115
274115
274115
274115
274115
274115
274115
274115
274115
274115
274115
274115
274115
274115
274115
274115
274115
274115
274115
274115
274115
274115
274115
274115
274115
